Ordonnancement/plne/source/petit_instance/6job/6job_7.dat
data;
param nombreJob := 6;
param nombreRessource := 3;
param duree := 1 9 2 4 3 2 4 3 5 2 6 2;
param capaciteRessource := 1 6 2 15 3 17;
param besoinRessource : 1 2 3 :=
                    1   1 1 7
                    2   3 7 2
                    3   1 7 2
                    4   4 6 10
                    5   2 5 2
                    6   4 4 8;
end;

