Ordonnancement/plne/source/glpk_resultat/6job/6job_7.sol
Problem:    glpsolRcpsp
Rows:       325
Columns:    133 (132 integer, 132 binary)
Non-zeros:  2293
Status:     INTEGER OPTIMAL
Objective:  obj = 9 (MINimum)

   No.   Row name        Activity     Lower bound   Upper bound
------ ------------    ------------- ------------- -------------
     1 periode[1]                  9             9             = 
     2 periode[2]                  4             4             = 
     3 periode[3]                  2             2             = 
     4 periode[4]                  3             3             = 
     5 periode[5]                  2             2             = 
     6 periode[6]                  2             2             = 
     7 complet[1,1]                7                           9 
     8 complet[1,2]                6                           9 
     9 complet[1,3]                5                           9 
    10 complet[1,4]                4                           9 
    11 complet[1,5]                3                           9 
    12 complet[1,6]                2                           9 
    13 complet[1,7]                1                           9 
    14 complet[1,8]                0                           9 
    15 complet[1,9]                9                           9 
    16 complet[1,10]
                                   0                           9 
    17 complet[1,11]
                                   0                           9 
    18 complet[1,12]
                                   0                           9 
    19 complet[1,13]
                                   0                           9 
    20 complet[1,14]
                                   0                           9 
    21 complet[1,15]
                                   0                           9 
    22 complet[1,16]
                                   0                           9 
    23 complet[1,17]
                                   0                           9 
    24 complet[1,18]
                                   0                           9 
    25 complet[1,19]
                                   0                           9 
    26 complet[1,20]
                                   0                           9 
    27 complet[2,1]                4                           4 
    28 complet[2,2]                4                           4 
    29 complet[2,3]               -1                           4 
    30 complet[2,4]                2                           4 
    31 complet[2,5]                1                           4 
    32 complet[2,6]                0                           4 
    33 complet[2,7]                4                           4 
    34 complet[2,8]                0                           4 
    35 complet[2,9]                0                           4 
    36 complet[2,10]
                                   0                           4 
    37 complet[2,11]
                                   0                           4 
    38 complet[2,12]
                                   0                           4 
    39 complet[2,13]
                                   0                           4 
    40 complet[2,14]
                                   0                           4 
    41 complet[2,15]
                                   0                           4 
    42 complet[2,16]
                                   0                           4 
    43 complet[2,17]
                                   0                           4 
    44 complet[2,18]
                                   0                           4 
    45 complet[2,19]
                                   0                           4 
    46 complet[2,20]
                                   0                           4 
    47 complet[3,1]                2                           2 
    48 complet[3,2]                2                           2 
    49 complet[3,3]                2                           2 
    50 complet[3,4]                2                           2 
    51 complet[3,5]               -1                           2 
    52 complet[3,6]                0                           2 
    53 complet[3,7]                2                           2 
    54 complet[3,8]                0                           2 
    55 complet[3,9]                0                           2 
    56 complet[3,10]
                                   0                           2 
    57 complet[3,11]
                                   0                           2 
    58 complet[3,12]
                                   0                           2 
    59 complet[3,13]
                                   0                           2 
    60 complet[3,14]
                                   0                           2 
    61 complet[3,15]
                                   0                           2 
    62 complet[3,16]
                                   0                           2 
    63 complet[3,17]
                                   0                           2 
    64 complet[3,18]
                                   0                           2 
    65 complet[3,19]
                                   0                           2 
    66 complet[3,20]
                                   0                           2 
    67 complet[4,1]                1                           3 
    68 complet[4,2]                0                           3 
    69 complet[4,3]                3                           3 
    70 complet[4,4]                0                           3 
    71 complet[4,5]                0                           3 
    72 complet[4,6]                0                           3 
    73 complet[4,7]                0                           3 
    74 complet[4,8]                0                           3 
    75 complet[4,9]                0                           3 
    76 complet[4,10]
                                   0                           3 
    77 complet[4,11]
                                   0                           3 
    78 complet[4,12]
                                   0                           3 
    79 complet[4,13]
                                   0                           3 
    80 complet[4,14]
                                   0                           3 
    81 complet[4,15]
                                   0                           3 
    82 complet[4,16]
                                   0                           3 
    83 complet[4,17]
                                   0                           3 
    84 complet[4,18]
                                   0                           3 
    85 complet[4,19]
                                   0                           3 
    86 complet[4,20]
                                   0                           3 
    87 complet[5,1]                2                           2 
    88 complet[5,2]                2                           2 
    89 complet[5,3]               -1                           2 
    90 complet[5,4]                0                           2 
    91 complet[5,5]                2                           2 
    92 complet[5,6]                0                           2 
    93 complet[5,7]                0                           2 
    94 complet[5,8]                0                           2 
    95 complet[5,9]                0                           2 
    96 complet[5,10]
                                   0                           2 
    97 complet[5,11]
                                   0                           2 
    98 complet[5,12]
                                   0                           2 
    99 complet[5,13]
                                   0                           2 
   100 complet[5,14]
                                   0                           2 
   101 complet[5,15]
                                   0                           2 
   102 complet[5,16]
                                   0                           2 
   103 complet[5,17]
                                   0                           2 
   104 complet[5,18]
                                   0                           2 
   105 complet[5,19]
                                   0                           2 
   106 complet[5,20]
                                   0                           2 
   107 complet[6,1]                2                           2 
   108 complet[6,2]                2                           2 
   109 complet[6,3]                2                           2 
   110 complet[6,4]                2                           2 
   111 complet[6,5]                2                           2 
   112 complet[6,6]                2                           2 
   113 complet[6,7]               -1                           2 
   114 complet[6,8]                0                           2 
   115 complet[6,9]                2                           2 
   116 complet[6,10]
                                   0                           2 
   117 complet[6,11]
                                   0                           2 
   118 complet[6,12]
                                   0                           2 
   119 complet[6,13]
                                   0                           2 
   120 complet[6,14]
                                   0                           2 
   121 complet[6,15]
                                   0                           2 
   122 complet[6,16]
                                   0                           2 
   123 complet[6,17]
                                   0                           2 
   124 complet[6,18]
                                   0                           2 
   125 complet[6,19]
                                   0                           2 
   126 complet[6,20]
                                   0                           2 
   127 cmax[1,1]                   8            -0               
   128 cmax[1,2]                   7            -0               
   129 cmax[1,3]                   6            -0               
   130 cmax[1,4]                   5            -0               
   131 cmax[1,5]                   4            -0               
   132 cmax[1,6]                   3            -0               
   133 cmax[1,7]                   2            -0               
   134 cmax[1,8]                   1            -0               
   135 cmax[1,9]                   0            -0               
   136 cmax[1,10]                  9            -0               
   137 cmax[1,11]                  9            -0               
   138 cmax[1,12]                  9            -0               
   139 cmax[1,13]                  9            -0               
   140 cmax[1,14]                  9            -0               
   141 cmax[1,15]                  9            -0               
   142 cmax[1,16]                  9            -0               
   143 cmax[1,17]                  9            -0               
   144 cmax[1,18]                  9            -0               
   145 cmax[1,19]                  9            -0               
   146 cmax[1,20]                  9            -0               
   147 cmax[1,21]                  9            -0               
   148 cmax[1,22]                  9            -0               
   149 cmax[2,1]                   9            -0               
   150 cmax[2,2]                   9            -0               
   151 cmax[2,3]                   9            -0               
   152 cmax[2,4]                   5            -0               
   153 cmax[2,5]                   4            -0               
   154 cmax[2,6]                   3            -0               
   155 cmax[2,7]                   2            -0               
   156 cmax[2,8]                   9            -0               
   157 cmax[2,9]                   9            -0               
   158 cmax[2,10]                  9            -0               
   159 cmax[2,11]                  9            -0               
   160 cmax[2,12]                  9            -0               
   161 cmax[2,13]                  9            -0               
   162 cmax[2,14]                  9            -0               
   163 cmax[2,15]                  9            -0               
   164 cmax[2,16]                  9            -0               
   165 cmax[2,17]                  9            -0               
   166 cmax[2,18]                  9            -0               
   167 cmax[2,19]                  9            -0               
   168 cmax[2,20]                  9            -0               
   169 cmax[2,21]                  9            -0               
   170 cmax[2,22]                  9            -0               
   171 cmax[3,1]                   9            -0               
   172 cmax[3,2]                   9            -0               
   173 cmax[3,3]                   9            -0               
   174 cmax[3,4]                   9            -0               
   175 cmax[3,5]                   9            -0               
   176 cmax[3,6]                   3            -0               
   177 cmax[3,7]                   2            -0               
   178 cmax[3,8]                   9            -0               
   179 cmax[3,9]                   9            -0               
   180 cmax[3,10]                  9            -0               
   181 cmax[3,11]                  9            -0               
   182 cmax[3,12]                  9            -0               
   183 cmax[3,13]                  9            -0               
   184 cmax[3,14]                  9            -0               
   185 cmax[3,15]                  9            -0               
   186 cmax[3,16]                  9            -0               
   187 cmax[3,17]                  9            -0               
   188 cmax[3,18]                  9            -0               
   189 cmax[3,19]                  9            -0               
   190 cmax[3,20]                  9            -0               
   191 cmax[3,21]                  9            -0               
   192 cmax[3,22]                  9            -0               
   193 cmax[4,1]                   8            -0               
   194 cmax[4,2]                   7            -0               
   195 cmax[4,3]                   6            -0               
   196 cmax[4,4]                   9            -0               
   197 cmax[4,5]                   9            -0               
   198 cmax[4,6]                   9            -0               
   199 cmax[4,7]                   9            -0               
   200 cmax[4,8]                   9            -0               
   201 cmax[4,9]                   9            -0               
   202 cmax[4,10]                  9            -0               
   203 cmax[4,11]                  9            -0               
   204 cmax[4,12]                  9            -0               
   205 cmax[4,13]                  9            -0               
   206 cmax[4,14]                  9            -0               
   207 cmax[4,15]                  9            -0               
   208 cmax[4,16]                  9            -0               
   209 cmax[4,17]                  9            -0               
   210 cmax[4,18]                  9            -0               
   211 cmax[4,19]                  9            -0               
   212 cmax[4,20]                  9            -0               
   213 cmax[4,21]                  9            -0               
   214 cmax[4,22]                  9            -0               
   215 cmax[5,1]                   9            -0               
   216 cmax[5,2]                   9            -0               
   217 cmax[5,3]                   9            -0               
   218 cmax[5,4]                   5            -0               
   219 cmax[5,5]                   4            -0               
   220 cmax[5,6]                   9            -0               
   221 cmax[5,7]                   9            -0               
   222 cmax[5,8]                   9            -0               
   223 cmax[5,9]                   9            -0               
   224 cmax[5,10]                  9            -0               
   225 cmax[5,11]                  9            -0               
   226 cmax[5,12]                  9            -0               
   227 cmax[5,13]                  9            -0               
   228 cmax[5,14]                  9            -0               
   229 cmax[5,15]                  9            -0               
   230 cmax[5,16]                  9            -0               
   231 cmax[5,17]                  9            -0               
   232 cmax[5,18]                  9            -0               
   233 cmax[5,19]                  9            -0               
   234 cmax[5,20]                  9            -0               
   235 cmax[5,21]                  9            -0               
   236 cmax[5,22]                  9            -0               
   237 cmax[6,1]                   9            -0               
   238 cmax[6,2]                   9            -0               
   239 cmax[6,3]                   9            -0               
   240 cmax[6,4]                   9            -0               
   241 cmax[6,5]                   9            -0               
   242 cmax[6,6]                   9            -0               
   243 cmax[6,7]                   9            -0               
   244 cmax[6,8]                   1            -0               
   245 cmax[6,9]                   0            -0               
   246 cmax[6,10]                  9            -0               
   247 cmax[6,11]                  9            -0               
   248 cmax[6,12]                  9            -0               
   249 cmax[6,13]                  9            -0               
   250 cmax[6,14]                  9            -0               
   251 cmax[6,15]                  9            -0               
   252 cmax[6,16]                  9            -0               
   253 cmax[6,17]                  9            -0               
   254 cmax[6,18]                  9            -0               
   255 cmax[6,19]                  9            -0               
   256 cmax[6,20]                  9            -0               
   257 cmax[6,21]                  9            -0               
   258 cmax[6,22]                  9            -0               
   259 ressource[1,1]
                                   5                           6 
   260 ressource[1,2]
                                   5                           6 
   261 ressource[1,3]
                                   5                           6 
   262 ressource[1,4]
                                   6                           6 
   263 ressource[1,5]
                                   6                           6 
   264 ressource[1,6]
                                   5                           6 
   265 ressource[1,7]
                                   5                           6 
   266 ressource[1,8]
                                   5                           6 
   267 ressource[1,9]
                                   5                           6 
   268 ressource[1,10]
                                   0                           6 
   269 ressource[1,11]
                                   0                           6 
   270 ressource[1,12]
                                   0                           6 
   271 ressource[1,13]
                                   0                           6 
   272 ressource[1,14]
                                   0                           6 
   273 ressource[1,15]
                                   0                           6 
   274 ressource[1,16]
                                   0                           6 
   275 ressource[1,17]
                                   0                           6 
   276 ressource[1,18]
                                   0                           6 
   277 ressource[1,19]
                                   0                           6 
   278 ressource[1,20]
                                   0                           6 
   279 ressource[1,21]
                                   0                           6 
   280 ressource[1,22]
                                   0                           6 
   281 ressource[2,1]
                                   7                          15 
   282 ressource[2,2]
                                   7                          15 
   283 ressource[2,3]
                                   7                          15 
   284 ressource[2,4]
                                  13                          15 
   285 ressource[2,5]
                                  13                          15 
   286 ressource[2,6]
                                  15                          15 
   287 ressource[2,7]
                                  15                          15 
   288 ressource[2,8]
                                   5                          15 
   289 ressource[2,9]
                                   5                          15 
   290 ressource[2,10]
                                   0                          15 
   291 ressource[2,11]
                                   0                          15 
   292 ressource[2,12]
                                   0                          15 
   293 ressource[2,13]
                                   0                          15 
   294 ressource[2,14]
                                   0                          15 
   295 ressource[2,15]
                                   0                          15 
   296 ressource[2,16]
                                   0                          15 
   297 ressource[2,17]
                                   0                          15 
   298 ressource[2,18]
                                   0                          15 
   299 ressource[2,19]
                                   0                          15 
   300 ressource[2,20]
                                   0                          15 
   301 ressource[2,21]
                                   0                          15 
   302 ressource[2,22]
                                   0                          15 
   303 ressource[3,1]
                                  17                          17 
   304 ressource[3,2]
                                  17                          17 
   305 ressource[3,3]
                                  17                          17 
   306 ressource[3,4]
                                  11                          17 
   307 ressource[3,5]
                                  11                          17 
   308 ressource[3,6]
                                  11                          17 
   309 ressource[3,7]
                                  11                          17 
   310 ressource[3,8]
                                  15                          17 
   311 ressource[3,9]
                                  15                          17 
   312 ressource[3,10]
                                   0                          17 
   313 ressource[3,11]
                                   0                          17 
   314 ressource[3,12]
                                   0                          17 
   315 ressource[3,13]
                                   0                          17 
   316 ressource[3,14]
                                   0                          17 
   317 ressource[3,15]
                                   0                          17 
   318 ressource[3,16]
                                   0                          17 
   319 ressource[3,17]
                                   0                          17 
   320 ressource[3,18]
                                   0                          17 
   321 ressource[3,19]
                                   0                          17 
   322 ressource[3,20]
                                   0                          17 
   323 ressource[3,21]
                                   0                          17 
   324 ressource[3,22]
                                   0                          17 
   325 obj                         9                             

   No. Column name       Activity     Lower bound   Upper bound
------ ------------    ------------- ------------- -------------
     1 x[1,1]       *              1             0             1 
     2 x[1,2]       *              1             0             1 
     3 x[1,3]       *              1             0             1 
     4 x[1,4]       *              1             0             1 
     5 x[1,5]       *              1             0             1 
     6 x[1,6]       *              1             0             1 
     7 x[1,7]       *              1             0             1 
     8 x[1,8]       *              1             0             1 
     9 x[1,9]       *              1             0             1 
    10 x[1,10]      *              0             0             1 
    11 x[1,11]      *              0             0             1 
    12 x[1,12]      *              0             0             1 
    13 x[1,13]      *              0             0             1 
    14 x[1,14]      *              0             0             1 
    15 x[1,15]      *              0             0             1 
    16 x[1,16]      *              0             0             1 
    17 x[1,17]      *              0             0             1 
    18 x[1,18]      *              0             0             1 
    19 x[1,19]      *              0             0             1 
    20 x[1,20]      *              0             0             1 
    21 x[1,21]      *              0             0             1 
    22 x[1,22]      *              0             0             1 
    23 x[2,1]       *              0             0             1 
    24 x[2,2]       *              0             0             1 
    25 x[2,3]       *              0             0             1 
    26 x[2,4]       *              1             0             1 
    27 x[2,5]       *              1             0             1 
    28 x[2,6]       *              1             0             1 
    29 x[2,7]       *              1             0             1 
    30 x[2,8]       *              0             0             1 
    31 x[2,9]       *              0             0             1 
    32 x[2,10]      *              0             0             1 
    33 x[2,11]      *              0             0             1 
    34 x[2,12]      *              0             0             1 
    35 x[2,13]      *              0             0             1 
    36 x[2,14]      *              0             0             1 
    37 x[2,15]      *              0             0             1 
    38 x[2,16]      *              0             0             1 
    39 x[2,17]      *              0             0             1 
    40 x[2,18]      *              0             0             1 
    41 x[2,19]      *              0             0             1 
    42 x[2,20]      *              0             0             1 
    43 x[2,21]      *              0             0             1 
    44 x[2,22]      *              0             0             1 
    45 x[3,1]       *              0             0             1 
    46 x[3,2]       *              0             0             1 
    47 x[3,3]       *              0             0             1 
    48 x[3,4]       *              0             0             1 
    49 x[3,5]       *              0             0             1 
    50 x[3,6]       *              1             0             1 
    51 x[3,7]       *              1             0             1 
    52 x[3,8]       *              0             0             1 
    53 x[3,9]       *              0             0             1 
    54 x[3,10]      *              0             0             1 
    55 x[3,11]      *              0             0             1 
    56 x[3,12]      *              0             0             1 
    57 x[3,13]      *              0             0             1 
    58 x[3,14]      *              0             0             1 
    59 x[3,15]      *              0             0             1 
    60 x[3,16]      *              0             0             1 
    61 x[3,17]      *              0             0             1 
    62 x[3,18]      *              0             0             1 
    63 x[3,19]      *              0             0             1 
    64 x[3,20]      *              0             0             1 
    65 x[3,21]      *              0             0             1 
    66 x[3,22]      *              0             0             1 
    67 x[4,1]       *              1             0             1 
    68 x[4,2]       *              1             0             1 
    69 x[4,3]       *              1             0             1 
    70 x[4,4]       *              0             0             1 
    71 x[4,5]       *              0             0             1 
    72 x[4,6]       *              0             0             1 
    73 x[4,7]       *              0             0             1 
    74 x[4,8]       *              0             0             1 
    75 x[4,9]       *              0             0             1 
    76 x[4,10]      *              0             0             1 
    77 x[4,11]      *              0             0             1 
    78 x[4,12]      *              0             0             1 
    79 x[4,13]      *              0             0             1 
    80 x[4,14]      *              0             0             1 
    81 x[4,15]      *              0             0             1 
    82 x[4,16]      *              0             0             1 
    83 x[4,17]      *              0             0             1 
    84 x[4,18]      *              0             0             1 
    85 x[4,19]      *              0             0             1 
    86 x[4,20]      *              0             0             1 
    87 x[4,21]      *              0             0             1 
    88 x[4,22]      *              0             0             1 
    89 x[5,1]       *              0             0             1 
    90 x[5,2]       *              0             0             1 
    91 x[5,3]       *              0             0             1 
    92 x[5,4]       *              1             0             1 
    93 x[5,5]       *              1             0             1 
    94 x[5,6]       *              0             0             1 
    95 x[5,7]       *              0             0             1 
    96 x[5,8]       *              0             0             1 
    97 x[5,9]       *              0             0             1 
    98 x[5,10]      *              0             0             1 
    99 x[5,11]      *              0             0             1 
   100 x[5,12]      *              0             0             1 
   101 x[5,13]      *              0             0             1 
   102 x[5,14]      *              0             0             1 
   103 x[5,15]      *              0             0             1 
   104 x[5,16]      *              0             0             1 
   105 x[5,17]      *              0             0             1 
   106 x[5,18]      *              0             0             1 
   107 x[5,19]      *              0             0             1 
   108 x[5,20]      *              0             0             1 
   109 x[5,21]      *              0             0             1 
   110 x[5,22]      *              0             0             1 
   111 x[6,1]       *              0             0             1 
   112 x[6,2]       *              0             0             1 
   113 x[6,3]       *              0             0             1 
   114 x[6,4]       *              0             0             1 
   115 x[6,5]       *              0             0             1 
   116 x[6,6]       *              0             0             1 
   117 x[6,7]       *              0             0             1 
   118 x[6,8]       *              1             0             1 
   119 x[6,9]       *              1             0             1 
   120 x[6,10]      *              0             0             1 
   121 x[6,11]      *              0             0             1 
   122 x[6,12]      *              0             0             1 
   123 x[6,13]      *              0             0             1 
   124 x[6,14]      *              0             0             1 
   125 x[6,15]      *              0             0             1 
   126 x[6,16]      *              0             0             1 
   127 x[6,17]      *              0             0             1 
   128 x[6,18]      *              0             0             1 
   129 x[6,19]      *              0             0             1 
   130 x[6,20]      *              0             0             1 
   131 x[6,21]      *              0             0             1 
   132 x[6,22]      *              0             0             1 
   133 z                           9                             

Integer feasibility conditions:

KKT.PE: max.abs.err = 0.00e+00 on row 0
        max.rel.err = 0.00e+00 on row 0
        High quality

KKT.PB: max.abs.err = 0.00e+00 on row 0
        max.rel.err = 0.00e+00 on row 0
        High quality

End of output
